job_count = 30 ;
duration = [|17, 13, 7|23, 6, 4|21, 2, 1|18, 7, 8|14, 5, 6|8, 15, 3|28, 8, 2|23, 13, 1|7, 8, 9|15, 17, 5|3, 11, 2|14, 3, 4|29, 3, 1|9, 3, 7|10, 2, 8|18, 3, 1|11, 4, 6|14, 2, 2|11, 11, 3|12, 16, 4|5, 9, 8|23, 16, 4|12, 6, 7|20, 2, 1|13, 5, 7|13, 18, 7|19, 13, 7|6, 8, 3|5, 3, 8|19, 15, 5|] ;
machine_count = 3 ;
cost = [|10, 35, 44|10, 38, 45|15, 24, 34|19, 21, 33|11, 25, 36|14, 33, 58|15, 31, 32|14, 30, 33|18, 23, 58|18, 26, 44|12, 39, 42|12, 20, 45|10, 26, 47|14, 37, 57|13, 21, 56|13, 20, 58|14, 35, 43|13, 38, 53|17, 22, 39|15, 36, 56|19, 21, 30|12, 24, 48|17, 27, 58|15, 20, 36|11, 32, 35|13, 30, 41|18, 27, 59|11, 30, 30|18, 34, 34|16, 22, 39|] ;
deadline = [67, 67, 67, 67, 67, 67, 67, 67, 67, 67, 67, 67, 67, 67, 67, 67, 67, 67, 67, 67, 67, 67, 67, 67, 67, 67, 67, 67, 67, 67] ;
release = [0, 0, 0, 0, 0, 0, 0, 0, 0, 0, 0, 0, 0, 0, 0, 0, 0, 0, 0, 0, 0, 0, 0, 0, 0, 0, 0, 0, 0, 0] ;
resource = [|9, 9, 9|9, 9, 9|5, 5, 5|8, 8, 8|2, 2, 2|8, 8, 8|4, 4, 4|1, 1, 1|9, 9, 9|5, 5, 5|3, 3, 3|5, 5, 5|4, 4, 4|1, 1, 1|4, 4, 4|1, 1, 1|8, 8, 8|4, 4, 4|7, 7, 7|2, 2, 2|6, 6, 6|4, 4, 4|1, 1, 1|4, 4, 4|9, 9, 9|8, 8, 8|4, 4, 4|8, 8, 8|7, 7, 7|4, 4, 4|] ;
capacities = [10, 10, 10] ;
